NAME : XML100_3174_11
DIMENSION : 101
NB_CLUSTERS : 11
CLUSTERING_ALG : KMeans
CLUSTERING_PARAMS : k(10)
CLUSTERS
1 0
2 13 15 38 57 71 85 89
3 21 26 35 55 60 62 65 67 68 70 72 95 97
4 10 12 25 49 86 92 94 100
5 29 36 37 39 42 45 58 61 63 74
6 2 3 8 17 20 43 44 50 64 75
7 7 19 23 27 41 48 52 69 81 82 83 88 93 98
8 16 18 24 28 40 56 76 96 99
9 9 11 14 22 30 31 32 51 53 54 66 79 87
10 1 6 33 34 46 73 80 84 90
11 4 5 47 59 77 78 91
EOF